(declare-const x0 Bool)
(declare-const x1 Bool)
(declare-const x2 Bool)
(declare-const x3 Bool)
(declare-const x4 Bool)
(declare-const x5 Bool)
(declare-const x6 Bool)
(declare-const x7 Bool)
(declare-const x8 Bool)
(declare-const x9 Bool)
(declare-const x10 Bool)
(declare-const x11 Bool)
(declare-const x12 Bool)
(declare-const x13 Bool)
(declare-const x14 Bool)
(declare-const x15 Bool)
(declare-const x16 Bool)
(declare-const x17 Bool)
(declare-const x18 Bool)
(declare-const x19 Bool)
(declare-const x20 Bool)
(assert (or (= x1 true) (or (and false x11) true)))
(assert (or (or true (or true x11)) true))
(assert (or x12 (or false false)))
(assert (and false false))
(assert true)
(assert (or (or x4 false) (or x11 x6)))
(assert (= (or true false) (and true x9)))
(assert (= (or (= (= x12 x3) (= x7 true)) (or x7 false)) (and x18 true)))
(assert (or (or (= x9 x5) (= x14 x10)) x13))
(assert (= (or (and (and true true) (and (= x6 false) (or x17 (or x19 x6)))) (or (or (= false (and x2 false)) (or (= x18 x19) x7)) true)) (or (and false x6) (and x8 x7))))
(check-sat)
